instances/benchmark/p2_15_8-3.dzn
Alphabet = {A,C,G,T};
ns = 15;
nc = 8;
sl = 10;
neighbours = [| I(T),I(G),I(G),I(A),I(G),I(C),I(C),I(T) | I(C),I(C),I(A),I(C),I(T),Null,Null,Null | I(A),I(G),I(A),Null,Null,Null,Null,Null | I(C),I(T),I(G),I(T),I(T),I(A),I(C),I(G) | I(T),I(T),I(C),I(G),I(C),I(C),Null,Null | I(T),I(T),Null,Null,Null,Null,Null,Null | I(G),I(G),I(G),Null,Null,Null,Null,Null | I(T),I(A),I(T),I(C),I(G),I(G),I(C),I(C) | I(C),I(G),I(T),I(C),I(C),I(A),Null,Null | I(C),I(C),I(G),I(A),I(T),Null,Null,Null | I(A),I(A),I(T),I(G),Null,Null,Null,Null | I(G),I(C),I(T),I(G),I(T),Null,Null,Null | I(C),I(T),I(G),I(A),Null,Null,Null,Null | I(C),I(C),I(T),I(C),I(A),I(A),Null,Null | I(G),I(G),I(T),I(C),I(T),Null,Null,Null |];
